nN = 4;
nR = 17;
nH = 1;

a = [[9, 20, 13, 21, 9, 21, 16, 5, 20, 19, 21, 16, 11, 21, 21, 18, 14], [13, 17, 13, 21, 5, 6, 21, 14, 21, 20, 12, 13, 12, 20, 9, 11, 23], [8, 15, 25, 22, 19, 23, 19, 9, 17, 5, 16, 7, 7, 11, 17, 23, 25], [20, 14, 13, 17, 13, 24, 16, 12, 19, 17, 14, 22, 25, 23, 19, 6, 20]];
c = [[[0, 0, 0, 0, 0, 0, 0, 0, 0, 0, 0, 0, 0, 0, 0, 0, 0], [43, 50, 33, 32, 43, 45, 30, 45, 44, 34, 37, 30, 37, 47, 48, 41, 49], [46, 48, 36, 44, 38, 49, 37, 43, 47, 40, 49, 32, 46, 37, 31, 46, 49], [37, 49, 50, 42, 49, 32, 47, 44, 43, 31, 47, 33, 39, 30, 37, 48, 46]], [[0, 0, 0, 0, 0, 0, 0, 0, 0, 0, 0, 0, 0, 0, 0, 0, 0], [0, 0, 0, 0, 0, 0, 0, 0, 0, 0, 0, 0, 0, 0, 0, 0, 0], [34, 43, 49, 33, 41, 33, 33, 45, 45, 41, 35, 39, 43, 46, 32, 43, 32], [40, 33, 33, 31, 47, 41, 46, 36, 30, 38, 30, 32, 41, 32, 42, 31, 30]], [[0, 0, 0, 0, 0, 0, 0, 0, 0, 0, 0, 0, 0, 0, 0, 0, 0], [0, 0, 0, 0, 0, 0, 0, 0, 0, 0, 0, 0, 0, 0, 0, 0, 0], [0, 0, 0, 0, 0, 0, 0, 0, 0, 0, 0, 0, 0, 0, 0, 0, 0], [49, 36, 30, 35, 35, 31, 49, 46, 50, 48, 40, 42, 35, 34, 44, 42, 44]], [[0, 0, 0, 0, 0, 0, 0, 0, 0, 0, 0, 0, 0, 0, 0, 0, 0], [0, 0, 0, 0, 0, 0, 0, 0, 0, 0, 0, 0, 0, 0, 0, 0, 0], [0, 0, 0, 0, 0, 0, 0, 0, 0, 0, 0, 0, 0, 0, 0, 0, 0], [0, 0, 0, 0, 0, 0, 0, 0, 0, 0, 0, 0, 0, 0, 0, 0, 0]]];
Q = [[55], [55], [52], [54]];

q = [[[11], [14], [13], [21], [13], [24], [16], [15], [23], [20], [5], [22], [9], [8], [16], [25], [19]], [[18], [10], [25], [21], [14], [21], [22], [7], [11], [22], [16], [11], [21], [17], [7], [23], [5]], [[6], [5], [21], [18], [22], [7], [15], [22], [18], [18], [10], [24], [12], [7], [17], [9], [25]], [[21], [6], [16], [5], [5], [16], [19], [23], [19], [15], [25], [18], [17], [23], [10], [19], [9]]];
p = [0.29, 0.9, 0.08, 0.82, 0.21, 0.72, 0.13, 0.2, 0.84, 0.27, 0.14, 0.81, 0.09, 0.54, 0.06, 0.02, 0.31];
